language Essence 1.3

letting blksize_delta be
        function(1 --> 8, 2 --> 8, 3 --> 8, 4 --> 8, 5 --> 8, 6 --> 8, 7 --> 9, 8 --> 8, 9 --> 8, 10 --> 8, 11 --> 8,
                 12 --> 8, 13 --> 8, 14 --> 8, 15 --> 8, 16 --> 9, 17 --> 9, 18 --> 8, 19 --> 9, 20 --> 8, 21 --> 8,
                 22 --> 8, 23 --> 8, 24 --> 8, 25 --> 8, 26 --> 8, 27 --> 8, 28 --> 8)
letting maxcars be
        function(1 --> 9, 2 --> 8, 3 --> 10, 4 --> 8, 5 --> 8, 6 --> 8, 7 --> 8, 8 --> 8, 9 --> 8, 10 --> 8, 11 --> 10,
                 12 --> 10, 13 --> 8, 14 --> 8, 15 --> 8, 16 --> 8, 17 --> 8, 18 --> 8, 19 --> 8, 20 --> 8, 21 --> 8,
                 22 --> 8, 23 --> 8, 24 --> 8, 25 --> 8, 26 --> 8, 27 --> 8, 28 --> 9)
letting n_cars be 229
letting n_classes be 30
letting n_options be 28
letting quantity be
        function(1 --> 7, 2 --> 7, 3 --> 7, 4 --> 11, 5 --> 7, 6 --> 7, 7 --> 20, 8 --> 7, 9 --> 7, 10 --> 7, 11 --> 8,
                 12 --> 7, 13 --> 8, 14 --> 7, 15 --> 7, 16 --> 7, 17 --> 7, 18 --> 7, 19 --> 7, 20 --> 7, 21 --> 7,
                 22 --> 7, 23 --> 7, 24 --> 7, 25 --> 7, 26 --> 7, 27 --> 7, 28 --> 7, 29 --> 7, 30 --> 7)
letting usage be
        relation((1, 1), (1, 2), (1, 7), (1, 10), (1, 16), (1, 20), (1, 23), (2, 24), (2, 26), (3, 28), (4, 3), (4, 13),
                 (4, 21), (5, 13), (6, 4), (6, 12), (7, 4), (7, 13), (8, 10), (8, 16), (9, 22), (10, 4), (10, 13),
                 (10, 15), (10, 21), (10, 24), (11, 17), (11, 18), (12, 1), (12, 28), (13, 23), (14, 5), (14, 8),
                 (14, 14), (14, 23), (15, 3), (15, 9), (15, 12), (15, 18), (16, 1), (16, 3), (16, 4), (16, 7), (16, 9),
                 (16, 15), (16, 22), (17, 11), (17, 19), (18, 10), (18, 13), (18, 15), (18, 19), (19, 2), (19, 8),
                 (20, 7), (21, 19), (22, 7), (22, 21), (23, 6), (23, 27), (23, 28), (24, 15), (25, 4), (25, 5),
                 (25, 11), (25, 21), (26, 16), (26, 27), (26, 28), (27, 9), (27, 17), (27, 20), (27, 25), (28, 6),
                 (28, 26), (29, 5), (29, 7), (29, 14), (29, 15), (29, 23), (29, 27), (30, 6), (30, 7), (30, 13))
$ Visualisation for usage
$  1  1
$  1  2
$  1  7
$  1 10
$  1 16
$  1 20
$  1 23
$  2 24
$  2 26
$  3 28
$  4  3
$  4 13
$  4 21
$  5 13
$  6  4
$  6 12
$  7  4
$  7 13
$  8 10
$  8 16
$  9 22
$ 10  4
$ 10 13
$ 10 15
$ 10 21
$ 10 24
$ 11 17
$ 11 18
$ 12  1
$ 12 28
$ 13 23
$ 14  5
$ 14  8
$ 14 14
$ 14 23
$ 15  3
$ 15  9
$ 15 12
$ 15 18
$ 16  1
$ 16  3
$ 16  4
$ 16  7
$ 16  9
$ 16 15
$ 16 22
$ 17 11
$ 17 19
$ 18 10
$ 18 13
$ 18 15
$ 18 19
$ 19  2
$ 19  8
$ 20  7
$ 21 19
$ 22  7
$ 22 21
$ 23  6
$ 23 27
$ 23 28
$ 24 15
$ 25  4
$ 25  5
$ 25 11
$ 25 21
$ 26 16
$ 26 27
$ 26 28
$ 27  9
$ 27 17
$ 27 20
$ 27 25
$ 28  6
$ 28 26
$ 29  5
$ 29  7
$ 29 14
$ 29 15
$ 29 23
$ 29 27
$ 30  6
$ 30  7
$ 30 13

